NAME: ../File/prFile/tspFile/tsp_file4.tsp
COMMENT: TSP file generated by Python
TYPE: TSP
DIMENSION: 30
EDGE_WEIGHT_TYPE: EUC_2D
NODE_COORD_SECTION
1 33 77
2 20 59
3 93 33
4 76 30
5 55 29
6 25 90
7 72 53
8 91 88
9 34 95
10 60 91
11 30 36
12 12 26
13 71 89
14 80 84
15 62 94
16 67 92
17 59 28
18 96 100
19 63 80
20 92 69
21 58 65
22 59 29
23 67 6
24 86 2
25 28 100
26 7 20
27 40 20
28 52 56
29 8 67
30 88 24
EOF
